proyfinal/src/viki/013/andrea/andrea-localstore/experimentInOfficeAgust.take6/worker_9/5f3d91e5-da34-4243-85d0-3dac227080d2.als.cnf.out
Reading from standard input... Use '--help' for help.
============================[ Problem Statistics ]=============================
|                                                                             |
|  Number of variables:         87638                                         |
|  Number of clauses:          161767                                         |
|  Parse time:                   0.04 s                                       |
|                                                                             |
============================[ Search Statistics ]==============================
| Conflicts |          ORIGINAL         |          LEARNT          | Progress |
|           |    Vars  Clauses Literals |    Limit  Clauses Lit/Cl |          |
===============================================================================
|       100 |   62348   105022   262490 |    38508      100     10 | 28.857 % |
|       250 |   62348   105022   262490 |    42358      250     37 | 28.857 % |
|       475 |   62348   105022   262490 |    46594      475     47 | 28.857 % |
|       812 |   62328   104944   262303 |    51254      810     59 | 28.880 % |
|      1318 |   62328   104944   262303 |    56379     1316     80 | 28.880 % |
|      2077 |   62285   104809   261979 |    62017     2067     76 | 28.929 % |
|      3216 |   62285   104776   261891 |    68219     3202     77 | 28.929 % |
|      4924 |   62174   104495   261267 |    75041     4675     75 | 29.056 % |
|      7486 |   46111    57464   145354 |    82545     6063     70 | 47.385 % |
===============================================================================
restarts              : 31
conflicts             : 7995           (7068 /sec)
decisions             : 27139          (0.00 % random) (23992 /sec)
propagations          : 11427027       (10102168 /sec)
conflict literals     : 525708         (55.15 % deleted)
Memory used           : 31.10 MB
CPU time              : 1.13115 s

UNSATISFIABLE
